7084.0
1 1 1 0 0 1 0 1 0 1 0 1 1 0 1 0 0 0 1 0 
0 0 0 0 0 15 0 10 15 15 10 15 15 15 15 3 3 3 3 3 3 11 11 11 11 11 11 12 11 5 5 5 5 5 5 5 5 5 0 0 3 3 11 12 15 14 15 3 15 5 3 3 11 14 15 0 14 15 10 10 12 3 0 14 15 3 11 12 10 10 15 12 14 11 14 14 11 14 10 10 